k = 24;
b = 12;
AtomicConstraints =  [|
1, 2|
	1, 3|
	1, 4|
	1, 5|
	1, 7|
	1, 10|
	1, 12|
	3, 2|
	3, 12|
	5, 2|
	8, 6|
	9, 6|
	7, 4|
	10, 2|
	10, 4|
	10, 7|
	10, 12|
	11, 2|
	11, 3|
	11, 4|
	11, 7|
	11, 10|
	11, 12|
	12, 4|
	23, 19|
	23, 15|
	23, 14|
	23, 17|
	22, 19|
	22, 16|
	22, 15|
	22, 14|
	22, 17|
	13, 19|
	13, 16|
	13, 24|
	13, 15|
	13, 14|
	13, 17|
	20, 15|
	18, 15|
	18, 14|
	21, 15|
	21, 14|
	21, 17|];
DisjunctiveConstraints =  [|1, 4, 16, 1|
	12, 7, 12, 2|
	23, 19, 23, 7|
	23, 16, 4, 23|
	22, 13, 22, 23|
	22, 16, 22, 4|
	22, 24, 12, 22|
	13, 24, 13, 12|
	20, 15, 20, 3|
	18, 21, 18, 20|
	18, 14, 18, 2|
	21, 17, 21, 5|
	16, 24, 16, 19|
	14, 17, 14, 15|];
SoftAtomicConstraints =  [|
11, 1|
12, 2|
3, 5|
10, 6|
1, 8|
8, 9|
7, 12|
17, 14|
14, 15|
24, 16|
19, 17|
21, 18|
16, 19|
18, 20|
23, 21|
13, 22|
22, 23|];
DirectSuccessors =  [];
